3 
4 
5  08 30 46 
6  06 18 31 46 
7  01 19 34 49 
8  04 19 34 49 
9  04 19 34 49 
10  04 19 34 49 
11  04 19 34 49 
12  04 19 34 49 
13  04 19 34 49 
14  04 19 34 49 
15  04 19 34 49 
16  04 19 34 49 
17  04 19 34 49 
18  04 19 34 50 
19  06 21 36 51 
20  06 21 36 51 
21  06 21 36 51 
22  05 20 35 50 
23  05 
0 
